data/lp_files/q3/31_8.lp
\ Model foo
\ LP format - for model browsing. Use MPS format to capture full model detail.
Minimize
  z
Subject To
 allocateEach[1]: x[1,1] + x[2,1] = 1
 allocateEach[2]: x[1,2] + x[2,2] = 1
 allocateEach[3]: x[1,3] + x[2,3] = 1
 allocateEach[4]: x[1,4] + x[2,4] = 1
 allocateEach[5]: x[1,5] + x[2,5] = 1
 allocateEach[6]: x[1,6] + x[2,6] = 1
 allocateEach[7]: x[1,7] + x[2,7] = 1
 allocateEach[8]: x[1,8] + x[2,8] = 1
 allocateEach[9]: x[1,9] + x[2,9] = 1
 allocateEach[10]: x[1,10] + x[2,10] = 1
 allocateEach[11]: x[1,11] + x[2,11] = 1
 allocateAllCash: cashProportion[1] + cashProportion[2] = 1
 findWorstP[1,2]: z + 0.1511201783218105 cashProportion[1]
   - 0.1511201783218105 cashProportion[2] + 0.1224829045298274 x[1,1]
   + 0.1579016963240017 x[1,2] + 0.0718009747251502 x[1,3]
   + 0.0635460349843213 x[1,4] + 0.0246514790887453 x[1,5]
   + 0.1255997582077147 x[1,6] + 0.00513808606294155 x[1,7]
   + 0.1796630020023424 x[1,8] + 0.0231402773055272 x[1,9]
   + 0.00542143639729495 x[1,10] + 0.069534172050323 x[1,11]
   - 0.1224829045298274 x[2,1] - 0.1579016963240017 x[2,2]
   - 0.0718009747251502 x[2,3] - 0.0635460349843213 x[2,4]
   - 0.0246514790887453 x[2,5] - 0.1255997582077147 x[2,6]
   - 0.00513808606294155 x[2,7] - 0.1796630020023424 x[2,8]
   - 0.0231402773055272 x[2,9] - 0.00542143639729495 x[2,10]
   - 0.069534172050323 x[2,11] >= 0
 findWorstP[2,1]: z - 0.1423614200551651 cashProportion[1]
   + 0.1423614200551651 cashProportion[2] - 0.1344425660645965 x[1,1]
   - 0.1120028472284011 x[1,2] - 0.0673191565085862 x[1,3]
   - 0.0945457780941365 x[1,4] - 0.0798291662959338 x[1,5]
   - 0.0328143073227155 x[1,6] - 0.0452175460450218 x[1,7]
   - 0.0931755494261055 x[1,8] - 0.0442744016371563 x[1,9]
   - 0.0923213809057745 x[1,10] - 0.0616958804164071 x[1,11]
   + 0.1344425660645965 x[2,1] + 0.1120028472284011 x[2,2]
   + 0.0673191565085862 x[2,3] + 0.0945457780941365 x[2,4]
   + 0.0798291662959338 x[2,5] + 0.0328143073227155 x[2,6]
   + 0.0452175460450218 x[2,7] + 0.0931755494261055 x[2,8]
   + 0.0442744016371563 x[2,9] + 0.0923213809057745 x[2,10]
   + 0.0616958804164071 x[2,11] >= 0
Bounds
 z <= 1
 -infinity <= cashProportion[1] <= 1
 -infinity <= cashProportion[2] <= 1
Binaries
 x[1,1] x[1,2] x[1,3] x[1,4] x[1,5] x[1,6] x[1,7] x[1,8] x[1,9] x[1,10]
 x[1,11] x[2,1] x[2,2] x[2,3] x[2,4] x[2,5] x[2,6] x[2,7] x[2,8] x[2,9]
 x[2,10] x[2,11]
End
