data/mps_files/q3/31_8.mps
NAME foo
ROWS
 N  OBJ
 E  allocateEach[1]
 E  allocateEach[2]
 E  allocateEach[3]
 E  allocateEach[4]
 E  allocateEach[5]
 E  allocateEach[6]
 E  allocateEach[7]
 E  allocateEach[8]
 E  allocateEach[9]
 E  allocateEach[10]
 E  allocateEach[11]
 E  allocateAllCash
 G  findWorstP[1,2]
 G  findWorstP[2,1]
COLUMNS
    z         OBJ       1
    z         findWorstP[1,2]  1
    z         findWorstP[2,1]  1
    cashProportion[1]  allocateAllCash  1
    cashProportion[1]  findWorstP[1,2]  1.5112017832181046e-01
    cashProportion[1]  findWorstP[2,1]  -1.4236142005516506e-01
    cashProportion[2]  allocateAllCash  1
    cashProportion[2]  findWorstP[1,2]  -1.5112017832181046e-01
    cashProportion[2]  findWorstP[2,1]  1.4236142005516506e-01
    MARKER    'MARKER'                 'INTORG'
    x[1,1]    allocateEach[1]  1
    x[1,1]    findWorstP[1,2]  1.2248290452982735e-01
    x[1,1]    findWorstP[2,1]  -1.3444256606459648e-01
    x[1,2]    allocateEach[2]  1
    x[1,2]    findWorstP[1,2]  1.5790169632400167e-01
    x[1,2]    findWorstP[2,1]  -1.1200284722840108e-01
    x[1,3]    allocateEach[3]  1
    x[1,3]    findWorstP[1,2]  7.1800974725150180e-02
    x[1,3]    findWorstP[2,1]  -6.7319156508586164e-02
    x[1,4]    allocateEach[4]  1
    x[1,4]    findWorstP[1,2]  6.3546034984321279e-02
    x[1,4]    findWorstP[2,1]  -9.4545778094136473e-02
    x[1,5]    allocateEach[5]  1
    x[1,5]    findWorstP[1,2]  2.4651479088745328e-02
    x[1,5]    findWorstP[2,1]  -0.0798291662959338
    x[1,6]    allocateEach[6]  1
    x[1,6]    findWorstP[1,2]  1.2559975820771471e-01
    x[1,6]    findWorstP[2,1]  -3.2814307322715543e-02
    x[1,7]    allocateEach[7]  1
    x[1,7]    findWorstP[1,2]  5.1380860629415548e-03
    x[1,7]    findWorstP[2,1]  -4.5217546045021789e-02
    x[1,8]    allocateEach[8]  1
    x[1,8]    findWorstP[1,2]  1.7966300200234236e-01
    x[1,8]    findWorstP[2,1]  -9.3175549426105508e-02
    x[1,9]    allocateEach[9]  1
    x[1,9]    findWorstP[1,2]  2.3140277305527222e-02
    x[1,9]    findWorstP[2,1]  -4.4274401637156326e-02
    x[1,10]   allocateEach[10]  1
    x[1,10]   findWorstP[1,2]  5.4214363972949495e-03
    x[1,10]   findWorstP[2,1]  -9.2321380905774533e-02
    x[1,11]   allocateEach[11]  1
    x[1,11]   findWorstP[1,2]  6.9534172050323029e-02
    x[1,11]   findWorstP[2,1]  -6.1695880416407146e-02
    x[2,1]    allocateEach[1]  1
    x[2,1]    findWorstP[1,2]  -1.2248290452982735e-01
    x[2,1]    findWorstP[2,1]  1.3444256606459648e-01
    x[2,2]    allocateEach[2]  1
    x[2,2]    findWorstP[1,2]  -1.5790169632400167e-01
    x[2,2]    findWorstP[2,1]  1.1200284722840108e-01
    x[2,3]    allocateEach[3]  1
    x[2,3]    findWorstP[1,2]  -7.1800974725150180e-02
    x[2,3]    findWorstP[2,1]  6.7319156508586164e-02
    x[2,4]    allocateEach[4]  1
    x[2,4]    findWorstP[1,2]  -6.3546034984321279e-02
    x[2,4]    findWorstP[2,1]  9.4545778094136473e-02
    x[2,5]    allocateEach[5]  1
    x[2,5]    findWorstP[1,2]  -2.4651479088745328e-02
    x[2,5]    findWorstP[2,1]  0.0798291662959338
    x[2,6]    allocateEach[6]  1
    x[2,6]    findWorstP[1,2]  -1.2559975820771471e-01
    x[2,6]    findWorstP[2,1]  3.2814307322715543e-02
    x[2,7]    allocateEach[7]  1
    x[2,7]    findWorstP[1,2]  -5.1380860629415548e-03
    x[2,7]    findWorstP[2,1]  4.5217546045021789e-02
    x[2,8]    allocateEach[8]  1
    x[2,8]    findWorstP[1,2]  -1.7966300200234236e-01
    x[2,8]    findWorstP[2,1]  9.3175549426105508e-02
    x[2,9]    allocateEach[9]  1
    x[2,9]    findWorstP[1,2]  -2.3140277305527222e-02
    x[2,9]    findWorstP[2,1]  4.4274401637156326e-02
    x[2,10]   allocateEach[10]  1
    x[2,10]   findWorstP[1,2]  -5.4214363972949495e-03
    x[2,10]   findWorstP[2,1]  9.2321380905774533e-02
    x[2,11]   allocateEach[11]  1
    x[2,11]   findWorstP[1,2]  -6.9534172050323029e-02
    x[2,11]   findWorstP[2,1]  6.1695880416407146e-02
    MARKER    'MARKER'                 'INTEND'
RHS
    RHS1      allocateEach[1]  1
    RHS1      allocateEach[2]  1
    RHS1      allocateEach[3]  1
    RHS1      allocateEach[4]  1
    RHS1      allocateEach[5]  1
    RHS1      allocateEach[6]  1
    RHS1      allocateEach[7]  1
    RHS1      allocateEach[8]  1
    RHS1      allocateEach[9]  1
    RHS1      allocateEach[10]  1
    RHS1      allocateEach[11]  1
    RHS1      allocateAllCash  1
BOUNDS
 UP BND1      z         1
 MI BND1      cashProportion[1]
 UP BND1      cashProportion[1]  1
 MI BND1      cashProportion[2]
 UP BND1      cashProportion[2]  1
 BV BND1      x[1,1]  
 BV BND1      x[1,2]  
 BV BND1      x[1,3]  
 BV BND1      x[1,4]  
 BV BND1      x[1,5]  
 BV BND1      x[1,6]  
 BV BND1      x[1,7]  
 BV BND1      x[1,8]  
 BV BND1      x[1,9]  
 BV BND1      x[1,10] 
 BV BND1      x[1,11] 
 BV BND1      x[2,1]  
 BV BND1      x[2,2]  
 BV BND1      x[2,3]  
 BV BND1      x[2,4]  
 BV BND1      x[2,5]  
 BV BND1      x[2,6]  
 BV BND1      x[2,7]  
 BV BND1      x[2,8]  
 BV BND1      x[2,9]  
 BV BND1      x[2,10] 
 BV BND1      x[2,11] 
ENDATA
